(set-logic QF_LIA)
(declare-fun x0 () Int)
(declare-fun x1 () Int)
(declare-fun x2 () Int)
(declare-fun x3 () Int)
(declare-fun x4 () Int)
(declare-fun x5 () Int)
(declare-fun x6 () Int)
(declare-fun x7 () Int)
(declare-fun x8 () Int)
(declare-fun x9 () Int)
(declare-fun A0 () Bool)
(declare-fun A1 () Bool)
(declare-fun A2 () Bool)
(declare-fun A3 () Bool)
(declare-fun A4 () Bool)
(declare-fun A5 () Bool)
(declare-fun A6 () Bool)
(declare-fun A7 () Bool)
(declare-fun A8 () Bool)
(declare-fun A9 () Bool)
(assert (let ((.def_0 (* 1 x6))) (let ((.def_1 (< .def_0 (- 1)))) (let ((.def_2 (or A0 .def_1))) (let ((.def_3 (not .def_2))) (let ((.def_4 (* 1 x1))) (let ((.def_5 (+ .def_4 .def_0))) (let ((.def_6 (< .def_5 (- 1)))) (let ((.def_7 (not .def_6))) (let ((.def_8 (and .def_7 A8))) (let ((.def_9 (or .def_8 .def_3))) (let ((.def_10 (not .def_9))) (let ((.def_11 (not A1))) (let ((.def_12 (and .def_11 A3))) (let ((.def_13 (* (- 1) x6))) (let ((.def_14 (< .def_13 1))) (let ((.def_15 (or A2 .def_14))) (let ((.def_16 (and .def_15 .def_12))) (let ((.def_17 (or .def_16 .def_10))) (let ((.def_18 (* (- 1) x2))) (let ((.def_19 (* (- 1) x8))) (let ((.def_20 (+ .def_19 .def_18))) (let ((.def_21 (< .def_20 (- 1)))) (let ((.def_22 (* 1 x0))) (let ((.def_23 (+ .def_22 .def_0))) (let ((.def_24 (< .def_23 1))) (let ((.def_25 (not .def_24))) (let ((.def_26 (and .def_25 .def_21))) (let ((.def_27 (not .def_26))) (let ((.def_28 (not A9))) (let ((.def_29 (* (- 1) x1))) (let ((.def_30 (+ .def_0 .def_29))) (let ((.def_31 (< .def_30 1))) (let ((.def_32 (or .def_31 .def_28))) (let ((.def_33 (or .def_32 .def_27))) (let ((.def_34 (not .def_33))) (let ((.def_35 (not A0))) (let ((.def_36 (or A7 .def_35))) (let ((.def_37 (* 1 x3))) (let ((.def_38 (< .def_37 (- 1)))) (let ((.def_39 (or .def_38 .def_28))) (let ((.def_40 (not .def_39))) (let ((.def_41 (and .def_40 .def_36))) (let ((.def_42 (not .def_41))) (let ((.def_43 (and .def_42 .def_34))) (let ((.def_44 (not .def_43))) (let ((.def_45 (or .def_44 .def_17))) (let ((.def_46 (not .def_45))) (let ((.def_47 (not A3))) (let ((.def_48 (and .def_47 A8))) (let ((.def_49 (* 1 x9))) (let ((.def_50 (+ .def_18 .def_49))) (let ((.def_51 (< .def_50 1))) (let ((.def_52 (not .def_51))) (let ((.def_53 (or .def_52 A0))) (let ((.def_54 (or .def_53 .def_48))) (let ((.def_55 (not .def_54))) (let ((.def_56 (< .def_4 1))) (let ((.def_57 (not .def_56))) (let ((.def_58 (* (- 1) x4))) (let ((.def_59 (< .def_58 1))) (let ((.def_60 (not .def_59))) (let ((.def_61 (and .def_60 .def_57))) (let ((.def_62 (not .def_61))) (let ((.def_63 (* (- 1) x5))) (let ((.def_64 (+ .def_63 .def_18))) (let ((.def_65 (< .def_64 (- 1)))) (let ((.def_66 (not .def_65))) (let ((.def_67 (not A2))) (let ((.def_68 (and .def_67 .def_66))) (let ((.def_69 (not .def_68))) (let ((.def_70 (and .def_69 .def_62))) (let ((.def_71 (not .def_70))) (let ((.def_72 (and .def_71 .def_55))) (let ((.def_73 (* 1 x5))) (let ((.def_74 (< .def_73 (- 1)))) (let ((.def_75 (not .def_74))) (let ((.def_76 (< .def_18 (- 1)))) (let ((.def_77 (and .def_76 .def_75))) (let ((.def_78 (not .def_77))) (let ((.def_79 (not A4))) (let ((.def_80 (< .def_19 1))) (let ((.def_81 (= .def_80 .def_79))) (let ((.def_82 (and .def_81 .def_78))) (let ((.def_83 (< .def_63 1))) (let ((.def_84 (or .def_83 .def_35))) (let ((.def_85 (not .def_84))) (let ((.def_86 (* (- 1) x3))) (let ((.def_87 (+ .def_73 .def_86))) (let ((.def_88 (< .def_87 1))) (let ((.def_89 (or A2 .def_88))) (let ((.def_90 (not .def_89))) (let ((.def_91 (or .def_90 .def_85))) (let ((.def_92 (not .def_91))) (let ((.def_93 (or .def_92 .def_82))) (let ((.def_94 (and .def_93 .def_72))) (let ((.def_95 (not .def_94))) (let ((.def_96 (and .def_95 .def_46))) (let ((.def_97 (not .def_96))) (let ((.def_98 (* 1 x4))) (let ((.def_99 (< .def_98 1))) (let ((.def_100 (or A2 .def_99))) (let ((.def_101 (* 1 x7))) (let ((.def_102 (+ .def_73 .def_101))) (let ((.def_103 (< .def_102 1))) (let ((.def_104 (not .def_103))) (let ((.def_105 (* (- 1) x0))) (let ((.def_106 (< .def_105 (- 1)))) (let ((.def_107 (not .def_106))) (let ((.def_108 (= .def_107 .def_104))) (let ((.def_109 (not .def_108))) (let ((.def_110 (or .def_109 .def_100))) (let ((.def_111 (not .def_110))) (let ((.def_112 (+ .def_37 .def_22))) (let ((.def_113 (< .def_112 (- 1)))) (let ((.def_114 (not .def_113))) (let ((.def_115 (= A9 .def_114))) (let ((.def_116 (+ .def_4 .def_37))) (let ((.def_117 (< .def_116 (- 1)))) (let ((.def_118 (and .def_28 .def_117))) (let ((.def_119 (not .def_118))) (let ((.def_120 (and .def_119 .def_115))) (let ((.def_121 (and .def_120 .def_111))) (let ((.def_122 (not .def_121))) (let ((.def_123 (< .def_86 (- 1)))) (let ((.def_124 (not .def_123))) (let ((.def_125 (or .def_67 .def_124))) (let ((.def_126 (not .def_125))) (let ((.def_127 (or A6 A4))) (let ((.def_128 (not .def_127))) (let ((.def_129 (or .def_128 .def_126))) (let ((.def_130 (not .def_129))) (let ((.def_131 (< .def_101 1))) (let ((.def_132 (not .def_131))) (let ((.def_133 (+ .def_29 .def_19))) (let ((.def_134 (< .def_133 (- 1)))) (let ((.def_135 (or .def_134 .def_132))) (let ((.def_136 (not .def_135))) (let ((.def_137 (+ .def_105 .def_4))) (let ((.def_138 (< .def_137 (- 1)))) (let ((.def_139 (not .def_138))) (let ((.def_140 (or .def_139 .def_35))) (let ((.def_141 (and .def_140 .def_136))) (let ((.def_142 (not .def_141))) (let ((.def_143 (and .def_142 .def_130))) (let ((.def_144 (not .def_143))) (let ((.def_145 (or .def_144 .def_122))) (let ((.def_146 (* (- 1) x7))) (let ((.def_147 (< .def_146 1))) (let ((.def_148 (and .def_67 .def_147))) (let ((.def_149 (not .def_148))) (let ((.def_150 (not A7))) (let ((.def_151 (and .def_150 .def_79))) (let ((.def_152 (not .def_151))) (let ((.def_153 (and .def_152 .def_149))) (let ((.def_154 (= .def_11 A4))) (let ((.def_155 (not .def_154))) (let ((.def_156 (+ .def_13 .def_86))) (let ((.def_157 (< .def_156 1))) (let ((.def_158 (and A8 .def_157))) (let ((.def_159 (not .def_158))) (let ((.def_160 (or .def_159 .def_155))) (let ((.def_161 (not .def_160))) (let ((.def_162 (and .def_161 .def_153))) (let ((.def_163 (not .def_162))) (let ((.def_164 (+ .def_18 .def_146))) (let ((.def_165 (< .def_164 (- 1)))) (let ((.def_166 (or .def_165 .def_11))) (let ((.def_167 (not .def_166))) (let ((.def_168 (not A5))) (let ((.def_169 (or .def_168 .def_150))) (let ((.def_170 (or .def_169 .def_167))) (let ((.def_171 (not .def_170))) (let ((.def_172 (< .def_58 (- 1)))) (let ((.def_173 (not .def_172))) (let ((.def_174 (or A7 .def_173))) (let ((.def_175 (< .def_18 1))) (let ((.def_176 (* 1 x8))) (let ((.def_177 (+ .def_176 .def_63))) (let ((.def_178 (< .def_177 (- 1)))) (let ((.def_179 (or .def_178 .def_175))) (let ((.def_180 (not .def_179))) (let ((.def_181 (and .def_180 .def_174))) (let ((.def_182 (not .def_181))) (let ((.def_183 (or .def_182 .def_171))) (let ((.def_184 (not .def_183))) (let ((.def_185 (and .def_184 .def_163))) (let ((.def_186 (not .def_185))) (let ((.def_187 (or .def_186 .def_145))) (let ((.def_188 (not .def_187))) (let ((.def_189 (and .def_188 .def_97))) (let ((.def_190 (not .def_189))) (let ((.def_191 (* (- 1) x9))) (let ((.def_192 (+ .def_13 .def_191))) (let ((.def_193 (< .def_192 1))) (let ((.def_194 (not .def_193))) (let ((.def_195 (and .def_194 .def_11))) (let ((.def_196 (not .def_195))) (let ((.def_197 (+ .def_101 .def_18))) (let ((.def_198 (< .def_197 1))) (let ((.def_199 (not .def_198))) (let ((.def_200 (and .def_199 .def_168))) (let ((.def_201 (not .def_200))) (let ((.def_202 (or .def_201 .def_196))) (let ((.def_203 (not .def_202))) (let ((.def_204 (* 1 x2))) (let ((.def_205 (< .def_204 1))) (let ((.def_206 (not .def_205))) (let ((.def_207 (< .def_191 1))) (let ((.def_208 (and .def_207 .def_206))) (let ((.def_209 (< .def_19 (- 1)))) (let ((.def_210 (+ .def_49 .def_29))) (let ((.def_211 (< .def_210 1))) (let ((.def_212 (and .def_211 .def_209))) (let ((.def_213 (not .def_212))) (let ((.def_214 (or .def_213 .def_208))) (let ((.def_215 (not .def_214))) (let ((.def_216 (or .def_215 .def_203))) (let ((.def_217 (not .def_216))) (let ((.def_218 (and .def_74 .def_168))) (let ((.def_219 (not .def_218))) (let ((.def_220 (+ .def_18 .def_13))) (let ((.def_221 (< .def_220 (- 1)))) (let ((.def_222 (and .def_67 .def_221))) (let ((.def_223 (and .def_222 .def_219))) (let ((.def_224 (+ .def_146 .def_204))) (let ((.def_225 (< .def_224 1))) (let ((.def_226 (not .def_225))) (let ((.def_227 (and .def_79 .def_226))) (let ((.def_228 (not A6))) (let ((.def_229 (and A0 .def_228))) (let ((.def_230 (not .def_229))) (let ((.def_231 (and .def_230 .def_227))) (let ((.def_232 (or .def_231 .def_223))) (let ((.def_233 (not .def_232))) (let ((.def_234 (= .def_233 .def_217))) (let ((.def_235 (not .def_234))) (let ((.def_236 (or .def_83 A2))) (let ((.def_237 (+ .def_4 .def_86))) (let ((.def_238 (< .def_237 1))) (let ((.def_239 (not .def_238))) (let ((.def_240 (or .def_239 .def_11))) (let ((.def_241 (not .def_240))) (let ((.def_242 (and .def_241 .def_236))) (let ((.def_243 (and A6 A7))) (let ((.def_244 (or .def_79 A6))) (let ((.def_245 (not .def_244))) (let ((.def_246 (or .def_245 .def_243))) (let ((.def_247 (not .def_246))) (let ((.def_248 (or .def_247 .def_242))) (let ((.def_249 (+ .def_29 .def_176))) (let ((.def_250 (< .def_249 (- 1)))) (let ((.def_251 (+ .def_18 .def_37))) (let ((.def_252 (< .def_251 (- 1)))) (let ((.def_253 (not .def_252))) (let ((.def_254 (and .def_253 .def_250))) (let ((.def_255 (or .def_11 .def_124))) (let ((.def_256 (and .def_255 .def_254))) (let ((.def_257 (and A9 .def_47))) (let ((.def_258 (not .def_257))) (let ((.def_259 (or .def_67 .def_47))) (let ((.def_260 (or .def_259 .def_258))) (let ((.def_261 (and .def_260 .def_256))) (let ((.def_262 (or .def_261 .def_248))) (let ((.def_263 (or .def_262 .def_235))) (let ((.def_264 (and .def_228 .def_11))) (let ((.def_265 (not .def_83))) (let ((.def_266 (or .def_265 .def_83))) (let ((.def_267 (not .def_266))) (let ((.def_268 (and .def_267 .def_264))) (let ((.def_269 (+ .def_19 .def_98))) (let ((.def_270 (< .def_269 (- 1)))) (let ((.def_271 (not .def_270))) (let ((.def_272 (and .def_271 .def_35))) (let ((.def_273 (or .def_168 .def_67))) (let ((.def_274 (not .def_273))) (let ((.def_275 (and .def_274 .def_272))) (let ((.def_276 (= .def_275 .def_268))) (let ((.def_277 (and A9 .def_79))) (let ((.def_278 (not .def_277))) (let ((.def_279 (or A2 .def_79))) (let ((.def_280 (and .def_279 .def_278))) (let ((.def_281 (not .def_76))) (let ((.def_282 (or .def_67 .def_281))) (let ((.def_283 (not .def_207))) (let ((.def_284 (or .def_28 .def_283))) (let ((.def_285 (and .def_284 .def_282))) (let ((.def_286 (not .def_285))) (let ((.def_287 (and .def_286 .def_280))) (let ((.def_288 (not .def_287))) (let ((.def_289 (and .def_288 .def_276))) (let ((.def_290 (+ .def_204 .def_86))) (let ((.def_291 (< .def_290 1))) (let ((.def_292 (or .def_291 A5))) (let ((.def_293 (not .def_292))) (let ((.def_294 (and .def_150 .def_47))) (let ((.def_295 (not .def_294))) (let ((.def_296 (and .def_295 .def_293))) (let ((.def_297 (< .def_0 1))) (let ((.def_298 (not .def_297))) (let ((.def_299 (and .def_298 .def_60))) (let ((.def_300 (or A4 A8))) (let ((.def_301 (not .def_300))) (let ((.def_302 (or .def_301 .def_299))) (let ((.def_303 (not .def_302))) (let ((.def_304 (or .def_303 .def_296))) (let ((.def_305 (not .def_80))) (let ((.def_306 (= .def_168 .def_305))) (let ((.def_307 (< .def_22 (- 1)))) (let ((.def_308 (not .def_307))) (let ((.def_309 (or .def_308 .def_67))) (let ((.def_310 (not .def_309))) (let ((.def_311 (= .def_310 .def_306))) (let ((.def_312 (not .def_311))) (let ((.def_313 (not .def_250))) (let ((.def_314 (+ .def_18 .def_101))) (let ((.def_315 (< .def_314 1))) (let ((.def_316 (or .def_315 .def_313))) (let ((.def_317 (not .def_316))) (let ((.def_318 (+ .def_37 .def_146))) (let ((.def_319 (< .def_318 (- 1)))) (let ((.def_320 (and .def_319 .def_79))) (let ((.def_321 (or .def_320 .def_317))) (let ((.def_322 (= .def_321 .def_312))) (let ((.def_323 (not .def_322))) (let ((.def_324 (and .def_323 .def_304))) (let ((.def_325 (not .def_324))) (let ((.def_326 (and .def_325 .def_289))) (let ((.def_327 (not .def_326))) (let ((.def_328 (and .def_327 .def_263))) (let ((.def_329 (not .def_328))) (let ((.def_330 (and .def_329 .def_190))) (let ((.def_331 (<= x9 1))) (let ((.def_332 (<= 0 x9))) (let ((.def_333 (<= x8 1))) (let ((.def_334 (<= 0 x8))) (let ((.def_335 (<= x7 1))) (let ((.def_336 (<= 0 x7))) (let ((.def_337 (<= x6 1))) (let ((.def_338 (<= 0 x6))) (let ((.def_339 (<= x5 1))) (let ((.def_340 (<= 0 x5))) (let ((.def_341 (<= x4 1))) (let ((.def_342 (<= 0 x4))) (let ((.def_343 (<= x3 1))) (let ((.def_344 (<= 0 x3))) (let ((.def_345 (<= x2 1))) (let ((.def_346 (<= 0 x2))) (let ((.def_347 (<= x1 1))) (let ((.def_348 (<= 0 x1))) (let ((.def_349 (<= x0 1))) (let ((.def_350 (<= 0 x0))) (let ((.def_351 (and .def_350 .def_349 .def_348 .def_347 .def_346 .def_345 .def_344 .def_343 .def_342 .def_341 .def_340 .def_339 .def_338 .def_337 .def_336 .def_335 .def_334 .def_333 .def_332 .def_331 .def_330))) .def_351)))))))))))))))))))))))))))))))))))))))))))))))))))))))))))))))))))))))))))))))))))))))))))))))))))))))))))))))))))))))))))))))))))))))))))))))))))))))))))))))))))))))))))))))))))))))))))))))))))))))))))))))))))))))))))))))))))))))))))))))))))))))))))))))))))))))))))))))))))))))))))))))))))))))))))))))))))))))))))))))))))))))))))))))))))))))))))))))))
(check-sat)
